# 1 amount of Vehicles
param nv :=
5 ;

# 2 amount of Orders
param no :=
9 ;

# 3 amount of locations
param nl :=
6 ;

# 4 amount of factories
param nf :=
2 ;

# 5 factory sets
set N_f_2[1] :=  4 ;
set N_f_2[2] :=  5 6 ;

# 6 factory stop capacities
param H :=
1 1
2 1 ;

# 7 pickup locations for each order
param L_pd :=
1 1
2 2
3 3
4 3
5 2
6 3
7 2
8 2
9 2 ;

# 8 delivery locations for each order
param L_dd :=
1 6
2 5
3 4
4 6
5 5
6 5
7 5
8 5
9 4 ;

# 9 location sets
set L_2[1] :=  1 ;
set L_2[2] :=  2 5 7 8 9 ;
set L_2[3] :=  3 4 6 ;
set L_2[4] :=  3 9 ;
set L_2[5] :=  2 5 6 7 8 ;
set L_2[6] :=  1 4 ;

# 10 order weights
param Q_kg_2 :=
1 1852.2521948928763
2 64.19709862664597
3 1687.2350695803912
4 1876.0784815529946
5 2984.3925943034365
6 784.353013427298
7 1136.6484123643338
8 1811.1464085047453
9 20880.884209401473 ;

# 11 order volumes
param Q_vol_2 :=
1 10.825242282059865
2 1.2513466326320162
3 37.05335776455868
4 20.3848738810272
5 51.037651558110724
6 7.713681486775219
7 5.728535891486008
8 15.494647890116749
9 63.57086689783257 ;

# 12 Locations vehicle can visit
set N_v_2[1] := 1 2 3 4 5 6 ;
set N_v_2[2] := 1 2 3 4 5 6 ;
set N_v_2[3] := 1 2 3 4 5 6 ;
set N_v_2[4] := 1 2 3 4 5 6 ;
set N_v_2[5] := 1 2 3 4 5 6 ;

# 13 Orders vehicles can pick up
set N_vp_2[1] := 1 2 3 4 5 6 7 8 ;
set N_vp_2[2] := 1 2 3 4 5 6 7 8 ;
set N_vp_2[3] := 1 2 3 4 5 6 7 8 9 ;
set N_vp_2[4] := 1 2 3 4 5 6 7 8 9 ;
set N_vp_2[5] := 1 2 3 4 5 6 7 8 9 ;

# 14 vehicle weight capacity
param K_kg :=
1 12000.0
2 18000.0
3 24000.0
4 24000.0
5 24000.0 ;

# 15 vehicle volume capacity
param K_vol :=
1 55.0
2 71.0
3 102.0
4 102.0
5 102.0 ;

# 16 amount of distance intervals
param na :=
1 2
2 2
3 2
4 2
5 2 ;

# 17 amount of weight intervals
param nb :=
1 4
2 2
3 2
4 2
5 2 ;

# 18 Distance intervals
param B_2 :=
1 1 1500.0
1 2 9999999.0
2 1 1500.0
2 2 9999999.0
3 1 1500.0
3 2 9999999.0
4 1 1500.0
4 2 9999999.0
5 1 1500.0
5 2 9999999.0 ;

# 19 Weight intervals
param Z_2 :=
1 1 500.0
1 2 1500.0
1 3 5000.0
1 4 24000.0
2 1 1500.0
2 2 24000.0
2 3 . 
2 4 . 
3 1 1500.0
3 2 24000.0
3 3 . 
3 4 . 
4 1 1500.0
4 2 24000.0
4 3 . 
4 4 . 
5 1 1500.0
5 2 24000.0
5 3 . 
5 4 . ;

# 20 cost per kilometer
param C_km :=
1 1 1 0.07105957031249999
1 1 2 0.11574494469165798
1 1 3 0.19662278014636098
1 1 4 0.3723393221028571
1 2 1 0.047373046875000005
1 2 2 0.07716329646110535
1 2 3 0.13108185343090736
1 2 4 0.2482262147352381
2 1 1 0.13503576880693438
2 1 2 0.43439587578666683
2 1 3 . 
2 1 4 . 
2 2 1 0.08487962610721587
2 2 2 0.2730488362087619
2 2 3 . 
2 2 4 . 
3 1 1 0.1543265929222107
3 1 2 0.4964524294704762
3 1 3 . 
3 1 4 . 
3 2 1 0.09645412057638168
3 2 2 0.3102827684190475
3 2 3 . 
3 2 4 . 
4 1 1 0.1543265929222107
4 1 2 0.4964524294704762
4 1 3 . 
4 1 4 . 
4 2 1 0.09645412057638168
4 2 2 0.3102827684190475
4 2 3 . 
4 2 4 . 
5 1 1 0.1543265929222107
5 1 2 0.4964524294704762
5 1 3 . 
5 1 4 . 
5 2 1 0.09645412057638168
5 2 2 0.3102827684190475
5 2 3 . 
5 2 4 . ;

# 21 cost per kilo
param C_kg :=
1 1 1 0.008544921875000003
1 1 2 0.004564315080642704
1 1 3 0.0022787031026382486
1 1 4 8.114541859150757E-4
1 2 1 0.003417968750000001
1 2 2 0.0018257260322570804
1 2 3 9.114812410552988E-4
1 2 4 3.245816743660299E-4
2 1 1 0.004564315080642704
2 1 2 8.114541859150757E-4
2 1 3 . 
2 1 4 . 
2 2 1 0.0018257260322570804
2 2 2 3.245816743660299E-4
2 2 3 . 
2 2 4 . 
3 1 1 0.004564315080642704
3 1 2 8.114541859150757E-4
3 1 3 . 
3 1 4 . 
3 2 1 0.0018257260322570804
3 2 2 3.245816743660299E-4
3 2 3 . 
3 2 4 . 
4 1 1 0.004564315080642704
4 1 2 8.114541859150757E-4
4 1 3 . 
4 1 4 . 
4 2 1 0.0018257260322570804
4 2 2 3.245816743660299E-4
4 2 3 . 
4 2 4 . 
5 1 1 0.004564315080642704
5 1 2 8.114541859150757E-4
5 1 3 . 
5 1 4 . 
5 2 1 0.0018257260322570804
5 2 2 3.245816743660299E-4
5 2 3 . 
5 2 4 . ;

# 22 fixed costs
param C_fix :=
1 1 1 60.75
1 1 2 136.6875
1 1 3 293.625
1 1 4 764.94375
1 2 1 461.3203125
1 2 2 1037.970703125
1 2 3 2229.71484375
1 2 4 5808.7916015625
2 1 1 159.90504192000003
2 1 2 894.8759938560002
2 1 3 . 
2 1 4 . 
2 2 1 1477.3559627052468
2 2 2 8267.721702398621
2 2 3 . 
2 2 4 . 
3 1 1 195.31660031999994
3 1 2 1093.0495669759996
3 1 3 . 
3 1 4 . 
3 2 1 2317.1726648638028
3 2 2 12967.584802256317
3 2 3 . 
3 2 4 . 
4 1 1 195.31660031999994
4 1 2 1093.0495669759996
4 1 3 . 
4 1 4 . 
4 2 1 2317.1726648638028
4 2 2 12967.584802256317
4 2 3 . 
4 2 4 . 
5 1 1 195.31660031999994
5 1 2 1093.0495669759996
5 1 3 . 
5 1 4 . 
5 2 1 2317.1726648638028
5 2 2 12967.584802256317
5 2 3 . 
5 2 4 . ;

# 23 stopping costs
param C_stop_2 :=
1 1 29.0
1 2 26.0
1 3 24.0
1 4 21.0
1 5 20.0
1 6 20.0
2 1 43.5
2 2 39.0
2 3 36.0
2 4 31.5
2 5 30.0
2 6 30.0
3 1 58.0
3 2 52.0
3 3 48.0
3 4 42.0
3 5 40.0
3 6 40.0
4 1 58.0
4 2 52.0
4 3 48.0
4 4 42.0
4 5 40.0
4 6 40.0
5 1 58.0
5 2 52.0
5 3 48.0
5 4 42.0
5 5 40.0
5 6 40.0 ;

# 24 cost of no transport
param C_2 :=
1 60874.715258905766
2 29377.340601225562
3 99449.09773373301
4 85194.78152247971
5 108365.60048347217
6 61533.95506590672
7 44579.04299745643
8 61090.13495749129
9 295472.4747443737 ;

# 25 timewindow amounts at location
param pi_2 :=
1 3
2 3
3 3
4 3
5 3
6 3 ;

# 26 timewindow lower bounds
param T_l_2 :=
1 1 0.0
1 2 240.0
1 3 1440.0
2 1 60.0
2 2 1500.0
2 3 2940.0
3 1 60.0
3 2 1500.0
3 3 2940.0
4 1 120.0
4 2 1560.0
4 3 3000.0
5 1 60.0
5 2 1500.0
5 3 2940.0
6 1 0.0
6 2 1440.0
6 3 2880.0 ;

# 27 timewindow upper bounds
param T_u_2 :=
1 1 180.0
1 2 480.0
1 3 1620.0
2 1 300.0
2 2 1680.0
2 3 3120.0
3 1 300.0
3 2 1680.0
3 3 3120.0
4 1 420.0
4 2 1740.0
4 3 3180.0
5 1 240.0
5 2 1800.0
5 3 3240.0
6 1 180.0
6 2 1740.0
6 3 3180.0 ;

# 28 Travel time
param T_2 :=
1 1 1 . 
1 1 2 173.0781059358212
1 1 3 431.50363487364734
1 1 4 176.29106216839614
1 1 5 251.64681056568617
1 1 6 238.11585046528563
1 2 1 173.0781059358212
1 2 2 . 
1 2 3 534.7493909037671
1 2 4 63.54609587543949
1 2 5 163.73371637211807
1 2 6 143.8890632784024
1 3 1 431.50363487364734
1 3 2 534.7493909037671
1 3 3 . 
1 3 4 451.3898212228402
1 3 5 565.9457240809752
1 3 6 579.1520470987093
1 4 1 176.29106216839614
1 4 2 63.54609587543949
1 4 3 451.3898212228402
1 4 4 . 
1 4 5 85.68537200747757
1 4 6 94.19421161634614
1 5 1 251.64681056568617
1 5 2 163.73371637211807
1 5 3 565.9457240809752
1 5 4 85.68537200747757
1 5 5 . 
1 5 6 1.414213562373095
1 6 1 238.11585046528563
1 6 2 143.8890632784024
1 6 3 579.1520470987093
1 6 4 94.19421161634614
1 6 5 1.414213562373095
1 6 6 . 
2 1 1 . 
2 1 2 177.40505858421673
2 1 3 442.2912257454885
2 1 4 180.69833872260602
2 1 5 257.9379808298283
2 1 6 244.06874672691777
2 2 1 177.40505858421673
2 2 2 . 
2 2 3 548.1181256763613
2 2 4 65.13474827232547
2 2 5 167.82705928142101
2 2 6 147.48628986036246
2 3 1 442.2912257454885
2 3 2 548.1181256763613
2 3 3 . 
2 3 4 462.67456675341117
2 3 5 580.0943671829996
2 3 6 593.630848276177
2 4 1 180.69833872260602
2 4 2 65.13474827232547
2 4 3 462.67456675341117
2 4 4 . 
2 4 5 87.82750630766449
2 4 6 96.54906690675479
2 5 1 257.9379808298283
2 5 2 167.82705928142101
2 5 3 580.0943671829996
2 5 4 87.82750630766449
2 5 5 . 
2 5 6 1.4495689014324222
2 6 1 244.06874672691777
2 6 2 147.48628986036246
2 6 3 593.630848276177
2 6 4 96.54906690675479
2 6 5 1.4495689014324222
2 6 6 . 
3 1 1 . 
3 1 2 177.40505858421673
3 1 3 442.2912257454885
3 1 4 180.69833872260602
3 1 5 257.9379808298283
3 1 6 244.06874672691777
3 2 1 177.40505858421673
3 2 2 . 
3 2 3 548.1181256763613
3 2 4 65.13474827232547
3 2 5 167.82705928142101
3 2 6 147.48628986036246
3 3 1 442.2912257454885
3 3 2 548.1181256763613
3 3 3 . 
3 3 4 462.67456675341117
3 3 5 580.0943671829996
3 3 6 593.630848276177
3 4 1 180.69833872260602
3 4 2 65.13474827232547
3 4 3 462.67456675341117
3 4 4 . 
3 4 5 87.82750630766449
3 4 6 96.54906690675479
3 5 1 257.9379808298283
3 5 2 167.82705928142101
3 5 3 580.0943671829996
3 5 4 87.82750630766449
3 5 5 . 
3 5 6 1.4495689014324222
3 6 1 244.06874672691777
3 6 2 147.48628986036246
3 6 3 593.630848276177
3 6 4 96.54906690675479
3 6 5 1.4495689014324222
3 6 6 . 
4 1 1 . 
4 1 2 181.73201123261228
4 1 3 453.0788166173297
4 1 4 185.10561527681594
4 1 5 264.2291510939705
4 1 6 250.02164298854993
4 2 1 181.73201123261228
4 2 2 . 
4 2 3 561.4868604489554
4 2 4 66.72340066921147
4 2 5 171.920402190724
4 2 6 151.08351644232252
4 3 1 453.0788166173297
4 3 2 561.4868604489554
4 3 3 . 
4 3 4 473.9593122839823
4 3 5 594.243010285024
4 3 6 608.1096494536448
4 4 1 185.10561527681594
4 4 2 66.72340066921147
4 4 3 473.9593122839823
4 4 4 . 
4 4 5 89.96964060785145
4 4 6 98.90392219716345
4 5 1 264.2291510939705
4 5 2 171.920402190724
4 5 3 594.243010285024
4 5 4 89.96964060785145
4 5 5 . 
4 5 6 1.4849242404917498
4 6 1 250.02164298854993
4 6 2 151.08351644232252
4 6 3 608.1096494536448
4 6 4 98.90392219716345
4 6 5 1.4849242404917498
4 6 6 . 
5 1 1 . 
5 1 2 181.73201123261228
5 1 3 453.0788166173297
5 1 4 185.10561527681594
5 1 5 264.2291510939705
5 1 6 250.02164298854993
5 2 1 181.73201123261228
5 2 2 . 
5 2 3 561.4868604489554
5 2 4 66.72340066921147
5 2 5 171.920402190724
5 2 6 151.08351644232252
5 3 1 453.0788166173297
5 3 2 561.4868604489554
5 3 3 . 
5 3 4 473.9593122839823
5 3 5 594.243010285024
5 3 6 608.1096494536448
5 4 1 185.10561527681594
5 4 2 66.72340066921147
5 4 3 473.9593122839823
5 4 4 . 
5 4 5 89.96964060785145
5 4 6 98.90392219716345
5 5 1 264.2291510939705
5 5 2 171.920402190724
5 5 3 594.243010285024
5 5 4 89.96964060785145
5 5 5 . 
5 5 6 1.4849242404917498
5 6 1 250.02164298854993
5 6 2 151.08351644232252
5 6 3 608.1096494536448
5 6 4 98.90392219716345
5 6 5 1.4849242404917498
5 6 6 . ;

# 29 Travel distance
param D_2 :=
1 1 . 
1 2 320.1562118716424
1 3 619.0072697472947
1 4 278.5821243367923
1 5 383.29362113137233
1 6 384.2317009305713
2 1 320.1562118716424
2 2 . 
2 3 923.4987818075343
2 4 103.09219175087898
2 5 249.46743274423616
2 6 247.77812655680484
3 1 619.0072697472947
3 2 923.4987818075343
3 3 . 
3 4 850.7796424456806
3 5 865.8914481619506
3 6 868.3040941974189
4 1 278.5821243367923
4 2 103.09219175087898
4 3 850.7796424456806
4 4 . 
4 5 163.37074401495514
4 6 162.3884232326923
5 1 383.29362113137233
5 2 249.46743274423616
5 3 865.8914481619506
5 4 163.37074401495514
5 5 . 
5 6 2.8284271247461903
6 1 384.2317009305713
6 2 247.77812655680484
6 3 868.3040941974189
6 4 162.3884232326923
6 5 2.8284271247461903
6 6 . ;

